100 10
507 203
457 556
564 634
265 613
250 806
453 397
433 472
728 699
367 69
499 465
488 415
465 669
614 532
817 877
730 723
471 188
467 646
894 645
800 554
814 863
573 462
723 985
677 117
283 482
425 724
353 355
546 370
412 434
571 382
431 572
296 90
318 379
170 342
470 381
408 763
382 528
937 45
594 374
927 721
635 920
294 627
476 335
828 452
723 905
751 299
545 786
468 160
109 607
433 421
388 259
510 168
549 365
811 347
457 72
429 529
853 678
495 360
714 408
640 526
618 311
944 182
599 322
319 434
712 819
660 454
475 763
698 645
302 553
623 633
454 302
591 515
61 347
521 416
460 400
324 395
344 560
527 520
583 851
963 317
532 444
533 402
668 347
433 802
829 367
848 808
587 653
683 660
566 127
109 143
465 178
93 408
284 473
330 76
736 659
594 847
305 276
421 600
544 669
369 425
258 329
